(set-option :print-success false)
(set-logic QF_UF)
(declare-sort x166 0)
(declare-sort x37 0)
(declare-fun x65 () Bool)
(declare-fun x173 () Bool)
(declare-fun x63 () x166)
(declare-fun x135 () Bool)
(declare-fun x164 () Bool)
(declare-fun x120 () Bool)
(declare-fun x19 () Bool)
(declare-fun x60 () x37)
(declare-fun x198 () x166)
(declare-fun x38 () x166)
(declare-fun x29 () Bool)
(declare-fun x95 () Bool)
(declare-fun x104 () x37)
(declare-fun x133 () Bool)
(declare-fun x140 () x37)
(declare-fun x109 () Bool)
(declare-fun x103 () Bool)
(declare-fun x194 () Bool)
(declare-fun x171 () Bool)
(declare-fun x91 () Bool)
(declare-fun x14 () Bool)
(declare-fun x190 () Bool)
(declare-fun x41 () Bool)
(declare-fun x192 () x166)
(declare-fun x20 () Bool)
(declare-fun x184 () Bool)
(declare-fun x170 () Bool)
(declare-fun x90 () Bool)
(declare-fun x24 () Bool)
(declare-fun x129 () Bool)
(declare-fun x114 () Bool)
(declare-fun x56 () Bool)
(declare-fun x177 () Bool)
(declare-fun x195 () Bool)
(declare-fun x131 () Bool)
(declare-fun x92 () Bool)
(declare-fun x97 () Bool)
(declare-fun x193 () x37)
(declare-fun x185 () Bool)
(declare-fun x86 () Bool)
(declare-fun x182 () Bool)
(declare-fun x76 () Bool)
(declare-fun x51 () Bool)
(declare-fun x49 () Bool)
(declare-fun x64 () Bool)
(declare-fun x125 () Bool)
(declare-fun x16 () Bool)
(declare-fun x62 () Bool)
(declare-fun x55 () Bool)
(declare-fun x110 () Bool)
(declare-fun x144 () Bool)
(declare-fun x121 () Bool)
(declare-fun x47 () Bool)
(declare-fun x59 () x166)
(declare-fun x72 () Bool)
(declare-fun x138 () Bool)
(declare-fun x106 () Bool)
(declare-fun x61 () x37)
(declare-fun x154 () Bool)
(declare-fun x27 () Bool)
(declare-fun x50 () Bool)
(declare-fun x100 () Bool)
(declare-fun x28 () x37)
(declare-fun x94 () x37)
(declare-fun x12 () Bool)
(declare-fun x176 () Bool)
(declare-fun x21 () Bool)
(declare-fun x174 () Bool)
(declare-fun x69 () Bool)
(declare-fun x44 () Bool)
(declare-fun x127 () Bool)
(declare-fun x30 () Bool)
(declare-fun x77 () Bool)
(declare-fun x6 () Bool)
(declare-fun x45 () Bool)
(declare-fun x17 () Bool)
(declare-fun x98 () Bool)
(declare-fun x160 () Bool)
(declare-fun x183 () x37)
(declare-fun x112 () Bool)
(declare-fun x85 () Bool)
(declare-fun x34 () Bool)
(declare-fun x178 () Bool)
(declare-fun x1 () x166)
(declare-fun x22 () Bool)
(declare-fun x147 () x37)
(declare-fun x9 () x37)
(declare-fun x10 () x37)
(declare-fun x180 () Bool)
(declare-fun x26 () x166)
(declare-fun x197 () x166)
(declare-fun x102 () Bool)
(declare-fun x155 () Bool)
(declare-fun x141 () Bool)
(declare-fun x116 () Bool)
(declare-fun x75 () x37)
(declare-fun x139 () x166)
(declare-fun x36 () x166)
(declare-fun x161 () Bool)
(declare-fun x163 () Bool)
(declare-fun x113 () Bool)
(declare-fun x136 () x166)
(declare-fun x67 () Bool)
(declare-fun x199 () Bool)
(declare-fun x7 () Bool)
(declare-fun x15 () Bool)
(declare-fun x191 () Bool)
(declare-fun x81 () x37)
(declare-fun x48 () x166)
(declare-fun x132 () Bool)
(declare-fun x80 () x37)
(declare-fun x35 () Bool)
(declare-fun x149 () x37)
(declare-fun x137 () Bool)
(declare-fun x42 () Bool)
(declare-fun x175 (x37 x37) Bool)
(declare-fun x128 () Bool)
(declare-fun x82 () x37)
(declare-fun x88 () x166)
(declare-fun x153 () Bool)
(declare-fun x188 () Bool)
(declare-fun x162 () Bool)
(declare-fun x101 () x37)
(declare-fun x11 () Bool)
(declare-fun x39 () Bool)
(declare-fun x126 () Bool)
(declare-fun x2 () Bool)
(declare-fun x43 () Bool)
(declare-fun x123 () Bool)
(declare-fun x79 () x37)
(declare-fun x124 () Bool)
(declare-fun x71 () Bool)
(declare-fun x169 () Bool)
(declare-fun x89 () Bool)
(declare-fun x105 () Bool)
(declare-fun x83 () x37)
(declare-fun x118 () Bool)
(declare-fun x25 () x37)
(declare-fun x134 () Bool)
(declare-fun x122 () Bool)
(declare-fun x148 () Bool)
(declare-fun x68 () Bool)
(declare-fun x74 () Bool)
(declare-fun x172 () x37)
(declare-fun x5 () Bool)
(declare-fun x158 () Bool)
(declare-fun x96 () Bool)
(declare-fun x54 () Bool)
(declare-fun x187 () Bool)
(declare-fun x130 () Bool)
(declare-fun x3 () x37)
(declare-fun x70 () Bool)
(declare-fun x142 () x37)
(declare-fun x156 () Bool)
(declare-fun x53 () Bool)
(declare-fun x66 (x37 x37) x37)
(declare-fun x111 () Bool)
(declare-fun x31 () Bool)
(declare-fun x23 () Bool)
(declare-fun x115 () Bool)
(declare-fun x186 () Bool)
(declare-fun x46 () Bool)
(declare-fun x4 () Bool)
(declare-fun x168 () Bool)
(declare-fun x73 () Bool)
(declare-fun x143 () Bool)
(declare-fun x151 () Bool)
(declare-fun x107 () Bool)
(declare-fun x58 () x166)
(declare-fun x146 () Bool)
(declare-fun x119 () x37)
(declare-fun x8 () Bool)
(declare-fun x32 () Bool)
(declare-fun x84 () x37)
(declare-fun x179 () Bool)
(declare-fun x93 () Bool)
(declare-fun x52 () Bool)
(declare-fun x18 () Bool)
(declare-fun x13 () x37)
(declare-fun x40 () Bool)
(declare-fun x150 () Bool)
(declare-fun x189 () Bool)
(declare-fun x157 () Bool)
(declare-fun x99 () Bool)
(declare-fun x57 () Bool)
(declare-fun x117 () Bool)
(declare-fun x181 () Bool)
(declare-fun x196 () x166)
(declare-fun x87 () Bool)
(declare-fun x152 () x37)
(declare-fun x78 () Bool)
(declare-fun x165 () Bool)
(declare-fun x159 () Bool)
(declare-fun x167 () Bool)
(declare-fun x33 () Bool)
(declare-fun x145 () Bool)
(declare-fun x108 () Bool)
(assert (= (ite x43 x147 x61) x152))
(assert (= x107 (not x76)))
(assert (= x111 (not x72)))
(assert (= (ite x55 x147 x61) x101))
(assert (= (and x132 x71 x105 x100 x160 x70 x153 x76 x158 x68 x144 x154 x186 x17 x34 x155 x146 x44 x133 x30 x113 x98 x169 x21 x29 x134 x47 x117 x157 x96 x164 x49 x40 x116 x33 x195 x170 x177 x120 x148 x178 x187 x103 x109 x5 x165 x130 x122 x90 x112 x191 x91 x114 x51 x99 x115 x14 x185 x110 x126 x161 x32 x2 x97 x57 x12 x145 x173 x180 x53 x108 x72 x123 x190) x156))
(assert (= x189 (not x117)))
(assert (= x143 (not x33)))
(assert (= x83 (ite x69 x147 x61)))
(assert (= x135 (not x67)))
(assert (= (not x51) x188))
(assert (= x158 (= x36 x136)))
(assert (= (not x161) x55))
(assert (= x106 (not x145)))
(assert (= (not x132) x137))
(assert (= (not x12) x65))
(assert (= (not x35) x86))
(assert (= x11 (not x126)))
(assert (= x128 (not x108)))
(assert (= (not x155) x64))
(assert (= (not x170) x93))
(assert (= x182 (not x133)))
(assert (= (x66 x104 x193) x94))
(assert (= x190 (= x36 x58)))
(assert (= (x66 x172 x152) x3))
(assert (= (not x4) x69))
(assert (= (not x185) x45))
(assert (= x124 (not (= x94 x61))))
(assert (= x104 (ite x89 x147 x61)))
(assert (= x151 (not x91)))
(assert (= (not x144) x62))
(assert (= (not x68) x162))
(assert (= (not x123) x43))
(assert (= x113 (= x88 x36)))
(assert (= x19 (not x115)))
(assert (= (not x160) x50))
(assert (= (not x100) x129))
(assert (= (x66 x3 x80) x25))
(assert (distinct x1 x196 x38 x63 x197 x139 x36))
(assert (= x20 (not x14)))
(assert (distinct x147 x75 x61))
(assert (= x81 (ite x86 x147 x61)))
(assert (= (not x116) x138))
(assert (= (not x195) x199))
(assert (= (not x32) x159))
(assert (= (not x99) x102))
(assert (= x112 (= x26 x36)))
(assert (= x78 (not x40)))
(assert (= x174 (not x8)))
(assert (= (not x169) x167))
(assert (= (not x154) x125))
(assert (= (not x173) x74))
(assert (= (x66 x83 x81) x149))
(assert (= x16 (not x30)))
(assert (= x54 (not x122)))
(assert (= x18 (not x178)))
(assert (= x171 (not x29)))
(assert x156)
(assert (= x148 (= x59 x36)))
(assert (= (= x48 x36) x164))
(assert (= (ite x85 x147 x61) x193))
(assert (= x46 (not x157)))
(assert (= (not x53) x41))
(assert (= x77 (not x105)))
(assert (= (not x71) x176))
(assert (= x194 (not x109)))
(assert (= (= x36 x192) x130))
(assert (= (not x134) x87))
(assert (= x141 (not x57)))
(assert (= (not x17) x6))
(assert (= x131 (not x70)))
(assert (= (not x187) x31))
(assert (= (not x98) x179))
(assert (= x85 (not x44)))
(assert (= (and x120 x124 x44) x189))
(assert (= (not x47) x95))
(assert (= (not x191) x92))
(assert (= x52 (not x165)))
(assert (= x121 (not x146)))
(assert (= (not x153) x24))
(assert (= (not x110) x184))
(assert (= (not x120) x89))
(assert (= x181 (not (= x149 x61))))
(assert (= (not x180) x15))
(assert (= (not x5) x39))
(assert (= (not x97) x118))
(assert (= (not x21) x127))
(assert (= x168 (not x114)))
(assert (= x80 (ite x129 x147 x61)))
(assert (= x23 (not x103)))
(assert (= (= x36 x198) x49))
(assert (= (and x35 x4 x181) x179))
(assert (= x174 (and x67 x116)))
(assert (= (x66 x94 x101) x172))
(assert (= x27 (not x90)))
(assert (= x42 (not x177)))
(assert (= x56 (not x2)))
(assert (= x96 (= x127 x8)))
(assert (= x135 (x175 x147 x25)))
(assert (= x22 (not x34)))
(assert (= x150 (not x186)))
(check-sat)
(exit)
